JOBS = 1..3;
MACHINES = 1..6;
SPEED = 2;
time = array3d(JOBS,MACHINES,1..SPEED,[179,32,28,5,57,10,224,40,122,21,154,27,233,42,169,30,34,6,182,32,155,28,132,23,41,7,189,34,175,31,96,17,198,35,179,32]);
energy = array3d(JOBS,MACHINES,1..SPEED,[16,72,75,95,56,90,10,67,29,81,21,76,9,65,18,74,71,94,16,72,21,75,26,79,66,93,15,71,17,73,38,84,13,70,16,72]);
precedence = array2d(JOBS,MACHINES,[0,5,1,4,2,3,5,2,0,1,3,4,3,0,5,1,2,4]);
ME = 1;
TE = 140;
st_old = array2d(JOBS,MACHINES,[0,591,34,367,91,213,554,225,0,34,394,422,348,0,421,216,312,389]);
SpeedScaling = array2d(JOBS,MACHINES,[2,2,1,1,1,1,2,1,1,1,2,1,1,1,1,1,2,2]);
